units real
atom_style full

dimension 3
boundary p p p

bond_style hybrid harmonic
angle_style hybrid harmonic
dihedral_style hybrid fourier
improper_style cvff
special_bonds lj 0.0 0.0 0.5 coul 0.0 0.0 0.8333333333

#pair_style lj/cut/coul/cut 9.0 9.0
#pair_modify mix arithmetic tail yes

pair_style lj/long/coul/long long long 9.0
pair_modify mix arithmetic tail no

read_data ../lmpsystem/cis-3-hexene-100L1.data
kspace_style pppm/disp 1.0e-5 
kspace_modify force/disp/real 0.0001
kspace_modify force/disp/kspace 0.002

thermo_style custom step density ebond eangle edihed eimp epair evdwl ecoul elong etail pe
thermo 100

log dump/log.lammps

fix 1 all box/relax aniso 0.0 vmax 0.001
minimize 1.0e-4 1.0e-4 1000000 1000000
unfix 1
reset_timestep 0

velocity all create 260.0 4928459 rot yes mom yes
fix 1 all shake 0.0001 20 0 m 1 1.008
fix 2 all momentum 500 linear 1 1 1 angular

dump 1 all custom 100 dump/cis-3-hexene-100L*.dump id mol type q x y z ix iy iz
dump_modify 1 sort id

timestep 1.0

variable vdensity equal density
print "d = [" file dump/density.dat
fix 55 all print 100 "${vdensity}," screen no append dump/density.dat

fix 3 all npt temp 298.5.0 298.5.0 100.0 aniso 1.0 1.0 1000
run 100000
#run 100

print "0.61]" append dump/density.dat 

# mpirun -np 4 ~/lammps/src/lmp_mine -i run.lmp 1> /de/null